120
150
49
57
57
50
56
54
47
51
43
60
58
51
52
55
43
53
48
50
49
59
52
47
57
51
52
40
52
44
41
53
53
53
45
44
55
49
52
41
58
53
40
46
56
49
55
46
53
51
46
50
57
49
46
43
55
58
51
50
57
43
47
44
41
53
54
56
58
50
46
58
46
56
41
50
54
53
49
42
44
43
55
60
47
46
48
60
46
60
52
45
44
59
42
53
46
47
51
43
52
49
59
56
45
43
57
51
51
45
42
42
49
56
60
60
49
49
60
40
60
52
